p tw 137 144
1 2
2 50
3 14
4 5
5 6
6 7
7 8
8 9
9 10
10 11
11 12
12 13
13 15
14 25
15 16
16 17
17 18
18 19
19 20
20 21
21 22
22 23
23 24
24 26
25 36
26 27
27 28
27 29
28 29
28 31
29 30
30 42
31 32
32 33
33 34
34 35
35 37
36 44
37 38
38 39
39 40
40 41
41 42
42 43
44 45
45 46
46 47
47 48
48 49
49 51
50 61
51 52
52 53
53 54
53 58
54 55
55 56
56 57
57 58
57 73
58 59
59 60
60 62
61 72
62 63
63 64
64 65
65 66
66 67
67 68
68 69
69 70
70 71
71 42
72 83
73 74
74 75
75 76
76 77
77 78
78 79
79 80
80 81
81 82
82 84
83 94
83 127
84 85
85 86
86 87
87 88
88 89
88 92
89 90
90 91
91 85
92 93
93 95
94 105
95 96
96 97
97 98
98 99
99 100
99 113
100 101
101 102
102 103
103 104
104 106
105 116
105 21
106 107
107 108
108 109
109 110
110 111
111 112
112 42
113 114
114 115
115 117
116 39
117 118
118 119
119 120
120 121
121 122
122 123
123 124
124 125
125 126
126 128
127 3
128 129
129 130
130 131
131 132
132 133
133 134
134 135
135 136
136 137
137 4
